% File represents an instance of a Composite Structure problem to be solved by a CP framework
% Created on 2025-03-26 10:41:39.514
T = 58;
n = 25;
m = 40;
edges = [(1, 2),
(7, 6),
(12, 11),
(17, 16),
(21, 22),
(2, 3),
(7, 8),
(12, 13),
(17, 18),
(23, 22),
(3, 4),
(8, 9),
(13, 14),
(18, 19),
(23, 24),
(4, 5),
(9, 10),
(14, 15),
(19, 20),
(24, 25),
(6, 1),
(11, 6),
(16, 11),
(21, 16),
(7, 2),
(12, 7),
(17, 12),
(17, 22),
(8, 3),
(13, 8),
(18, 13),
(23, 18),
(9, 4),
(14, 9),
(19, 14),
(24, 19),
(10, 5),
(15, 10),
(20, 15),
(25, 20)];
counts = [|10, 14, 10, 12,
|10, 12, 10, 12,
|8, 12, 8, 10,
|8, 10, 8, 6,
|8, 10, 8, 2,
|10, 14, 10, 14,
|10, 14, 10, 16,
|10, 14, 10, 10,
|8, 12, 8, 10,
|8, 10, 8, 6,
|10, 16, 10, 14,
|10, 18, 10, 16,
|10, 16, 10, 12,
|10, 12, 10, 10,
|8, 10, 8, 10,
|10, 18, 10, 18,
|10, 20, 10, 18,
|10, 20, 10, 12,
|10, 16, 10, 12,
|8, 16, 8, 10,
|10, 20, 10, 18,
|10, 14, 10, 18,
|10, 20, 10, 18,
|10, 20, 10, 14,
|10, 18, 10, 10|];
